n = 5;
nb_couleurs = 8;
nb_couleurs2 = 9;
nb_formes = 5;
nb_variantes = 5;
gris = 1;
t = [|1,307,992,1,
|1,307,732,307,
|1,992,850,307,
|1,732,850,992,
|1,1,637,732,
|992,537,1250,1,
|732,992,992,537,
|850,757,992,992,
|850,1498,647,757,
|637,1,992,1498,
|1250,1438,1438,1,
|992,647,1250,1438,
|992,1692,992,647,
|647,1749,1472,1692,
|992,1,339,1749,
|1438,1250,339,1,
|1250,339,837,1250,
|992,1472,1472,339,
|1472,647,650,1472,
|339,1,1250,647,
|339,1498,1,1,
|837,850,1,1498,
|1472,1438,1,850,
|650,647,1,1438,
|1250,1,1,647,
|];